MST08
Position Depot: Random
Horizon for Depot: Small
Position of customers: Mixt
Distribution of the demand: Large
Width of time windows: Tight
Distribution of the service: Large

VEHICLE 
NUMBER 	 CAPACITY 
 7 	 	 618 
 
CUSTOMER
CUST NO. 	 XCOORD.  	 YCOORD. 	 DEMAND 	 READY TIME 	 DUE DATE 	 SERVICE TIME 
 0 	 	 77 	 	 911 	 	 0 	 	 0 	 	 2128 	 	 0 
  1 	 	 345 	 	 976 	 	 61 	 	 111 	 	 303 	 	 175 
  2 	 	 445 	 	 795 	 	 6 	 	 463 	 	 599 	 	 197 
  3 	 	 988 	 	 945 	 	 15 	 	 1902 	 	 2002 	 	 135 
  4 	 	 952 	 	 511 	 	 17 	 	 1850 	 	 1988 	 	 181 
  5 	 	 361 	 	 211 	 	 24 	 	 761 	 	 830 	 	 147 
  6 	 	 43 	 	 146 	 	 7 	 	 788 	 	 842 	 	 126 
  7 	 	 364 	 	 12 	 	 79 	 	 1974 	 	 2087 	 	 145 
  8 	 	 141 	 	 41 	 	 81 	 	 1749 	 	 1866 	 	 174 
  9 	 	 324 	 	 983 	 	 81 	 	 1170 	 	 1279 	 	 107 
  10 	 	 347 	 	 264 	 	 25 	 	 686 	 	 771 	 	 113 
  11 	 	 249 	 	 966 	 	 79 	 	 1727 	 	 1869 	 	 170 
  12 	 	 370 	 	 38 	 	 12 	 	 1095 	 	 1147 	 	 200 
  13 	 	 996 	 	 494 	 	 26 	 	 1042 	 	 1110 	 	 156 
  14 	 	 406 	 	 34 	 	 54 	 	 1017 	 	 1205 	 	 156 
  15 	 	 287 	 	 105 	 	 48 	 	 882 	 	 977 	 	 114 
  16 	 	 378 	 	 262 	 	 72 	 	 664 	 	 786 	 	 123 
  17 	 	 583 	 	 945 	 	 18 	 	 1174 	 	 1311 	 	 167 
  18 	 	 997 	 	 928 	 	 47 	 	 845 	 	 1012 	 	 164 
  19 	 	 337 	 	 974 	 	 29 	 	 412 	 	 588 	 	 184 
  20 	 	 311 	 	 894 	 	 70 	 	 1689 	 	 1778 	 	 198 
  21 	 	 66 	 	 163 	 	 30 	 	 668 	 	 822 	 	 119 
  22 	 	 976 	 	 531 	 	 42 	 	 1605 	 	 1753 	 	 162 
  23 	 	 304 	 	 291 	 	 50 	 	 1870 	 	 1975 	 	 200 
  24 	 	 977 	 	 584 	 	 92 	 	 986 	 	 1053 	 	 141 
  25 	 	 468 	 	 752 	 	 100 	 	 819 	 	 982 	 	 113 
  26 	 	 29 	 	 179 	 	 36 	 	 1941 	 	 1996 	 	 151 
  27 	 	 278 	 	 327 	 	 94 	 	 1930 	 	 2057 	 	 137 
  28 	 	 438 	 	 808 	 	 17 	 	 1379 	 	 1494 	 	 181 
  29 	 	 967 	 	 915 	 	 48 	 	 1322 	 	 1415 	 	 197 
  30 	 	 943 	 	 529 	 	 47 	 	 928 	 	 1083 	 	 123 
  31 	 	 795 	 	 385 	 	 88 	 	 1319 	 	 1487 	 	 136 
  32 	 	 444 	 	 712 	 	 50 	 	 322 	 	 459 	 	 119 
  33 	 	 479 	 	 34 	 	 6 	 	 1638 	 	 1760 	 	 155 
  34 	 	 54 	 	 54 	 	 12 	 	 1405 	 	 1600 	 	 189 
  35 	 	 409 	 	 45 	 	 12 	 	 1407 	 	 1534 	 	 172 
  36 	 	 123 	 	 172 	 	 10 	 	 2041 	 	 2102 	 	 112 
  37 	 	 412 	 	 881 	 	 94 	 	 1812 	 	 1991 	 	 179 
  38 	 	 878 	 	 511 	 	 64 	 	 790 	 	 984 	 	 135 
  39 	 	 408 	 	 929 	 	 81 	 	 1508 	 	 1574 	 	 125 
  40 	 	 997 	 	 913 	 	 92 	 	 1447 	 	 1504 	 	 189 
  41 	 	 1 	 	 78 	 	 99 	 	 1861 	 	 1954 	 	 109 
  42 	 	 449 	 	 753 	 	 100 	 	 559 	 	 686 	 	 146 
  43 	 	 328 	 	 958 	 	 96 	 	 1509 	 	 1699 	 	 147 
  44 	 	 354 	 	 827 	 	 5 	 	 1899 	 	 2079 	 	 177 
  45 	 	 886 	 	 501 	 	 58 	 	 798 	 	 997 	 	 189 
  46 	 	 97 	 	 100 	 	 45 	 	 1279 	 	 1368 	 	 110 
  47 	 	 56 	 	 125 	 	 45 	 	 680 	 	 864 	 	 106 
  48 	 	 926 	 	 462 	 	 4 	 	 1284 	 	 1339 	 	 108 
  49 	 	 389 	 	 184 	 	 36 	 	 1913 	 	 2064 	 	 163 
  50 	 	 929 	 	 481 	 	 26 	 	 1202 	 	 1338 	 	 150 
  51 	 	 6 	 	 703 	 	 18 	 	 1411 	 	 1487 	 	 111 
  52 	 	 333 	 	 856 	 	 5 	 	 1544 	 	 1711 	 	 156 
  53 	 	 102 	 	 481 	 	 45 	 	 449 	 	 631 	 	 182 
  54 	 	 154 	 	 340 	 	 25 	 	 1177 	 	 1309 	 	 129 
  55 	 	 992 	 	 280 	 	 54 	 	 1740 	 	 1823 	 	 125 
  56 	 	 517 	 	 583 	 	 60 	 	 472 	 	 603 	 	 108 
  57 	 	 534 	 	 814 	 	 19 	 	 1470 	 	 1571 	 	 151 
  58 	 	 820 	 	 637 	 	 47 	 	 685 	 	 871 	 	 150 
  59 	 	 587 	 	 422 	 	 54 	 	 1211 	 	 1359 	 	 174 
  60 	 	 811 	 	 59 	 	 18 	 	 1132 	 	 1237 	 	 119 
  61 	 	 246 	 	 754 	 	 39 	 	 1169 	 	 1360 	 	 180 
  62 	 	 798 	 	 977 	 	 49 	 	 956 	 	 1050 	 	 193 
  63 	 	 671 	 	 848 	 	 3 	 	 1031 	 	 1182 	 	 151 
  64 	 	 944 	 	 261 	 	 62 	 	 1040 	 	 1191 	 	 152 
  65 	 	 578 	 	 828 	 	 11 	 	 1949 	 	 2113 	 	 140 
  66 	 	 120 	 	 486 	 	 66 	 	 1948 	 	 2128 	 	 183 
  67 	 	 541 	 	 525 	 	 5 	 	 558 	 	 743 	 	 147 
  68 	 	 96 	 	 85 	 	 36 	 	 1234 	 	 1339 	 	 185 
  69 	 	 591 	 	 688 	 	 18 	 	 491 	 	 616 	 	 148 
  70 	 	 95 	 	 836 	 	 66 	 	 1706 	 	 1778 	 	 150 
  71 	 	 900 	 	 398 	 	 78 	 	 938 	 	 1066 	 	 153 
  72 	 	 285 	 	 121 	 	 6 	 	 1463 	 	 1597 	 	 137 
  73 	 	 705 	 	 14 	 	 78 	 	 1550 	 	 1654 	 	 160 
  74 	 	 628 	 	 85 	 	 20 	 	 2020 	 	 2128 	 	 144 
  75 	 	 622 	 	 42 	 	 72 	 	 983 	 	 1128 	 	 119 
  76 	 	 711 	 	 458 	 	 12 	 	 750 	 	 857 	 	 121 
  77 	 	 937 	 	 998 	 	 27 	 	 775 	 	 950 	 	 187 
  78 	 	 457 	 	 340 	 	 66 	 	 1886 	 	 2055 	 	 112 
  79 	 	 434 	 	 526 	 	 16 	 	 1418 	 	 1491 	 	 167 
  80 	 	 803 	 	 376 	 	 35 	 	 1330 	 	 1401 	 	 149 
  81 	 	 192 	 	 588 	 	 76 	 	 1070 	 	 1185 	 	 189 
  82 	 	 355 	 	 380 	 	 13 	 	 478 	 	 659 	 	 139 
  83 	 	 226 	 	 467 	 	 65 	 	 404 	 	 515 	 	 176 
  84 	 	 290 	 	 946 	 	 34 	 	 1141 	 	 1200 	 	 139 
  85 	 	 658 	 	 439 	 	 11 	 	 981 	 	 1080 	 	 108 
  86 	 	 842 	 	 82 	 	 61 	 	 1708 	 	 1794 	 	 114 
  87 	 	 90 	 	 939 	 	 63 	 	 731 	 	 892 	 	 160 
  88 	 	 579 	 	 864 	 	 78 	 	 1019 	 	 1076 	 	 163 
  89 	 	 167 	 	 302 	 	 71 	 	 1191 	 	 1322 	 	 102 
  90 	 	 659 	 	 655 	 	 11 	 	 1168 	 	 1367 	 	 181 
  91 	 	 958 	 	 903 	 	 39 	 	 852 	 	 969 	 	 145 
  92 	 	 758 	 	 306 	 	 1 	 	 1954 	 	 2079 	 	 114 
  93 	 	 474 	 	 339 	 	 32 	 	 621 	 	 815 	 	 113 
  94 	 	 963 	 	 481 	 	 29 	 	 949 	 	 1083 	 	 138 
  95 	 	 92 	 	 752 	 	 42 	 	 183 	 	 250 	 	 193 
  96 	 	 395 	 	 405 	 	 75 	 	 1957 	 	 2035 	 	 116 
  97 	 	 82 	 	 868 	 	 58 	 	 644 	 	 801 	 	 176 
  98 	 	 569 	 	 468 	 	 35 	 	 928 	 	 1061 	 	 132 
  99 	 	 148 	 	 955 	 	 60 	 	 167 	 	 232 	 	 105 
  100 	 	 445 	 	 227 	 	 18 	 	 1472 	 	 1631 	 	 192 
 